aux_benchmarks/lp2sat/smokers_8_2_prob.lp.lp.cnf
p cnf 352 1064
22 70 0
-22 -70 0
-90 -23 -105 0
-90 23 0
-91 -23 -105 0
-91 23 0
109 -22 0
-109 22 0
230 -109 0
-230 109 0
105 -109 0
-105 109 0
110 -29 -34 0
-110 29 0
-110 34 0
231 -110 0
-231 110 0
232 -90 -110 96 0
-232 90 0
-232 110 0
-232 -96 0
233 -113 -110 96 90 0
-233 113 0
-233 110 0
-233 -96 0
-233 -90 0
234 -113 -96 -90 -110 0
-234 113 0
-234 96 0
-234 90 0
-234 110 0
113 -91 -110 97 0
-113 91 0
-113 110 0
-113 -97 0
111 -110 -112 0
-111 110 0
-111 112 0
235 -111 105 0
-235 111 0
-235 -105 0
236 -96 -90 -110 0
-236 96 0
-236 90 0
-236 110 0
237 -110 96 90 0
-237 110 0
-237 -96 0
-237 -90 0
115 -90 -110 96 0
-115 90 0
-115 110 0
-115 -96 0
238 -114 -91 -110 97 0
-238 114 0
-238 91 0
-238 110 0
-238 -97 0
239 -115 -97 -110 91 0
-239 115 0
-239 97 0
-239 110 0
-239 -91 0
-111 116 0
240 -110 -116 0
-240 110 0
-240 116 0
117 -25 -36 0
-117 25 0
-117 36 0
241 -117 0
-241 117 0
242 -90 -117 92 0
-242 90 0
-242 117 0
-242 -92 0
243 -120 -117 92 90 0
-243 120 0
-243 117 0
-243 -92 0
-243 -90 0
244 -120 -92 -90 -117 0
-244 120 0
-244 92 0
-244 90 0
-244 117 0
120 -91 -117 93 0
-120 91 0
-120 117 0
-120 -93 0
118 -117 -119 0
-118 117 0
-118 119 0
245 -118 105 0
-245 118 0
-245 -105 0
246 -92 -90 -117 0
-246 92 0
-246 90 0
-246 117 0
247 -117 92 90 0
-247 117 0
-247 -92 0
-247 -90 0
122 -90 -117 92 0
-122 90 0
-122 117 0
-122 -92 0
248 -121 -91 -117 93 0
-248 121 0
-248 91 0
-248 117 0
-248 -93 0
249 -122 -93 -117 91 0
-249 122 0
-249 93 0
-249 117 0
-249 -91 0
-118 123 0
250 -117 -123 0
-250 117 0
-250 123 0
-107 108 0
-23 107 105 0
24 71 0
-24 -71 0
-92 -25 -125 0
-92 25 0
-93 -25 -125 0
-93 25 0
129 -24 0
-129 24 0
251 -129 0
-251 129 0
125 -129 0
-125 129 0
130 -27 -31 0
-130 27 0
-130 31 0
252 -130 0
-252 130 0
253 -92 -130 94 0
-253 92 0
-253 130 0
-253 -94 0
254 -133 -130 94 92 0
-254 133 0
-254 130 0
-254 -94 0
-254 -92 0
255 -133 -94 -92 -130 0
-255 133 0
-255 94 0
-255 92 0
-255 130 0
133 -93 -130 95 0
-133 93 0
-133 130 0
-133 -95 0
131 -130 -132 0
-131 130 0
-131 132 0
256 -131 125 0
-256 131 0
-256 -125 0
257 -94 -92 -130 0
-257 94 0
-257 92 0
-257 130 0
258 -130 94 92 0
-258 130 0
-258 -94 0
-258 -92 0
135 -92 -130 94 0
-135 92 0
-135 130 0
-135 -94 0
259 -134 -93 -130 95 0
-259 134 0
-259 93 0
-259 130 0
-259 -95 0
260 -135 -95 -130 93 0
-260 135 0
-260 95 0
-260 130 0
-260 -93 0
-131 136 0
261 -130 -136 0
-261 130 0
-261 136 0
137 -23 -35 0
-137 23 0
-137 35 0
262 -137 0
-262 137 0
263 -92 -137 90 0
-263 92 0
-263 137 0
-263 -90 0
264 -140 -137 90 92 0
-264 140 0
-264 137 0
-264 -90 0
-264 -92 0
265 -140 -90 -92 -137 0
-265 140 0
-265 90 0
-265 92 0
-265 137 0
140 -93 -137 91 0
-140 93 0
-140 137 0
-140 -91 0
138 -137 -139 0
-138 137 0
-138 139 0
266 -138 125 0
-266 138 0
-266 -125 0
267 -90 -92 -137 0
-267 90 0
-267 92 0
-267 137 0
268 -137 90 92 0
-268 137 0
-268 -90 0
-268 -92 0
142 -92 -137 90 0
-142 92 0
-142 137 0
-142 -90 0
269 -141 -93 -137 91 0
-269 141 0
-269 93 0
-269 137 0
-269 -91 0
270 -142 -91 -137 93 0
-270 142 0
-270 91 0
-270 137 0
-270 -93 0
-138 143 0
271 -137 -143 0
-271 137 0
-271 143 0
-127 128 0
-25 127 125 0
26 72 0
-26 -72 0
-94 -27 -145 0
-94 27 0
-95 -27 -145 0
-95 27 0
149 -26 0
-149 26 0
272 -149 0
-272 149 0
145 -149 0
-145 149 0
150 -29 -30 0
-150 29 0
-150 30 0
273 -150 0
-273 150 0
274 -94 -150 96 0
-274 94 0
-274 150 0
-274 -96 0
275 -153 -150 96 94 0
-275 153 0
-275 150 0
-275 -96 0
-275 -94 0
276 -153 -96 -94 -150 0
-276 153 0
-276 96 0
-276 94 0
-276 150 0
153 -95 -150 97 0
-153 95 0
-153 150 0
-153 -97 0
151 -150 -152 0
-151 150 0
-151 152 0
277 -151 145 0
-277 151 0
-277 -145 0
278 -96 -94 -150 0
-278 96 0
-278 94 0
-278 150 0
279 -150 96 94 0
-279 150 0
-279 -96 0
-279 -94 0
155 -94 -150 96 0
-155 94 0
-155 150 0
-155 -96 0
280 -154 -95 -150 97 0
-280 154 0
-280 95 0
-280 150 0
-280 -97 0
281 -155 -97 -150 95 0
-281 155 0
-281 97 0
-281 150 0
-281 -95 0
-151 156 0
282 -150 -156 0
-282 150 0
-282 156 0
157 -25 -32 0
-157 25 0
-157 32 0
283 -157 0
-283 157 0
284 -94 -157 92 0
-284 94 0
-284 157 0
-284 -92 0
285 -160 -157 92 94 0
-285 160 0
-285 157 0
-285 -92 0
-285 -94 0
286 -160 -92 -94 -157 0
-286 160 0
-286 92 0
-286 94 0
-286 157 0
160 -95 -157 93 0
-160 95 0
-160 157 0
-160 -93 0
158 -157 -159 0
-158 157 0
-158 159 0
287 -158 145 0
-287 158 0
-287 -145 0
288 -92 -94 -157 0
-288 92 0
-288 94 0
-288 157 0
289 -157 92 94 0
-289 157 0
-289 -92 0
-289 -94 0
162 -94 -157 92 0
-162 94 0
-162 157 0
-162 -92 0
290 -161 -95 -157 93 0
-290 161 0
-290 95 0
-290 157 0
-290 -93 0
291 -162 -93 -157 95 0
-291 162 0
-291 93 0
-291 157 0
-291 -95 0
-158 163 0
292 -157 -163 0
-292 157 0
-292 163 0
-147 148 0
-27 147 145 0
28 73 0
-28 -73 0
-96 -29 -165 0
-96 29 0
-97 -29 -165 0
-97 29 0
169 -28 0
-169 28 0
293 -169 0
-293 169 0
165 -169 0
-165 169 0
170 -27 -33 0
-170 27 0
-170 33 0
294 -170 0
-294 170 0
295 -96 -170 94 0
-295 96 0
-295 170 0
-295 -94 0
296 -173 -170 94 96 0
-296 173 0
-296 170 0
-296 -94 0
-296 -96 0
297 -173 -94 -96 -170 0
-297 173 0
-297 94 0
-297 96 0
-297 170 0
173 -97 -170 95 0
-173 97 0
-173 170 0
-173 -95 0
171 -170 -172 0
-171 170 0
-171 172 0
298 -171 165 0
-298 171 0
-298 -165 0
299 -94 -96 -170 0
-299 94 0
-299 96 0
-299 170 0
300 -170 94 96 0
-300 170 0
-300 -94 0
-300 -96 0
175 -96 -170 94 0
-175 96 0
-175 170 0
-175 -94 0
301 -174 -97 -170 95 0
-301 174 0
-301 97 0
-301 170 0
-301 -95 0
302 -175 -95 -170 97 0
-302 175 0
-302 95 0
-302 170 0
-302 -97 0
-171 176 0
303 -170 -176 0
-303 170 0
-303 176 0
177 -23 -37 0
-177 23 0
-177 37 0
304 -177 0
-304 177 0
305 -96 -177 90 0
-305 96 0
-305 177 0
-305 -90 0
306 -180 -177 90 96 0
-306 180 0
-306 177 0
-306 -90 0
-306 -96 0
307 -180 -90 -96 -177 0
-307 180 0
-307 90 0
-307 96 0
-307 177 0
180 -97 -177 91 0
-180 97 0
-180 177 0
-180 -91 0
178 -177 -179 0
-178 177 0
-178 179 0
308 -178 165 0
-308 178 0
-308 -165 0
309 -90 -96 -177 0
-309 90 0
-309 96 0
-309 177 0
310 -177 90 96 0
-310 177 0
-310 -90 0
-310 -96 0
182 -96 -177 90 0
-182 96 0
-182 177 0
-182 -90 0
311 -181 -97 -177 91 0
-311 181 0
-311 97 0
-311 177 0
-311 -91 0
312 -182 -91 -177 97 0
-312 182 0
-312 91 0
-312 177 0
-312 -97 0
-178 183 0
313 -177 -183 0
-313 177 0
-313 183 0
-167 168 0
-29 167 165 0
30 74 0
-30 -74 0
31 75 0
-31 -75 0
32 76 0
-32 -76 0
33 77 0
-33 -77 0
34 78 0
-34 -78 0
35 79 0
-35 -79 0
36 80 0
-36 -80 0
37 81 0
-37 -81 0
38 82 0
-38 -82 0
186 -98 0
-186 98 0
-99 -186 0
-98 -39 -185 0
-98 39 0
-99 -39 -185 0
-99 39 0
189 -38 0
-189 38 0
314 -189 0
-314 189 0
185 -189 0
-185 189 0
190 -41 -46 0
-190 41 0
-190 46 0
315 -190 0
-315 190 0
316 -98 -190 100 0
-316 98 0
-316 190 0
-316 -100 0
317 -193 -190 100 98 0
-317 193 0
-317 190 0
-317 -100 0
-317 -98 0
318 -193 -100 -98 -190 0
-318 193 0
-318 100 0
-318 98 0
-318 190 0
193 -99 -190 101 0
-193 99 0
-193 190 0
-193 -101 0
191 -190 -192 0
-191 190 0
-191 192 0
187 -191 185 0
-187 191 0
-187 -185 0
319 -100 -98 -190 0
-319 100 0
-319 98 0
-319 190 0
320 -190 100 98 0
-320 190 0
-320 -100 0
-320 -98 0
195 -98 -190 100 0
-195 98 0
-195 190 0
-195 -100 0
321 -194 -99 -190 101 0
-321 194 0
-321 99 0
-321 190 0
-321 -101 0
322 -195 -101 -190 99 0
-322 195 0
-322 101 0
-322 190 0
-322 -99 0
-191 196 0
188 -190 -196 0
-188 190 0
-188 196 0
-187 188 0
-39 187 185 0
40 83 0
-40 -83 0
199 -100 0
-199 100 0
-101 -199 0
-100 -41 -198 0
-100 41 0
-101 -41 -198 0
-101 41 0
202 -40 0
-202 40 0
323 -202 0
-323 202 0
198 -202 0
-198 202 0
203 -44 -45 0
-203 44 0
-203 45 0
324 -203 0
-324 203 0
325 -100 -203 102 0
-325 100 0
-325 203 0
-325 -102 0
326 -206 -203 102 100 0
-326 206 0
-326 203 0
-326 -102 0
-326 -100 0
327 -206 -102 -100 -203 0
-327 206 0
-327 102 0
-327 100 0
-327 203 0
206 -101 -203 103 0
-206 101 0
-206 203 0
-206 -103 0
204 -203 -205 0
-204 203 0
-204 205 0
328 -204 198 0
-328 204 0
-328 -198 0
329 -102 -100 -203 0
-329 102 0
-329 100 0
-329 203 0
330 -203 102 100 0
-330 203 0
-330 -102 0
-330 -100 0
208 -100 -203 102 0
-208 100 0
-208 203 0
-208 -102 0
331 -207 -101 -203 103 0
-331 207 0
-331 101 0
-331 203 0
-331 -103 0
332 -208 -103 -203 101 0
-332 208 0
-332 103 0
-332 203 0
-332 -101 0
-204 209 0
333 -203 -209 0
-333 203 0
-333 209 0
210 -39 -47 0
-210 39 0
-210 47 0
334 -210 0
-334 210 0
335 -100 -210 98 0
-335 100 0
-335 210 0
-335 -98 0
336 -213 -210 98 100 0
-336 213 0
-336 210 0
-336 -98 0
-336 -100 0
337 -213 -98 -100 -210 0
-337 213 0
-337 98 0
-337 100 0
-337 210 0
213 -101 -210 99 0
-213 101 0
-213 210 0
-213 -99 0
211 -210 -212 0
-211 210 0
-211 212 0
338 -211 198 0
-338 211 0
-338 -198 0
339 -98 -100 -210 0
-339 98 0
-339 100 0
-339 210 0
340 -210 98 100 0
-340 210 0
-340 -98 0
-340 -100 0
215 -100 -210 98 0
-215 100 0
-215 210 0
-215 -98 0
341 -214 -101 -210 99 0
-341 214 0
-341 101 0
-341 210 0
-341 -99 0
342 -215 -99 -210 101 0
-342 215 0
-342 99 0
-342 210 0
-342 -101 0
-211 216 0
343 -210 -216 0
-343 210 0
-343 216 0
-200 201 0
-41 200 198 0
42 84 0
-42 -84 0
43 85 0
-43 -85 0
219 -102 0
-219 102 0
-103 -219 0
-102 -44 -218 0
-102 44 0
-103 -44 -218 0
-103 44 0
222 -43 0
-222 43 0
344 -222 0
-344 222 0
218 -222 0
-218 222 0
223 -41 -42 0
-223 41 0
-223 42 0
345 -223 0
-345 223 0
346 -102 -223 100 0
-346 102 0
-346 223 0
-346 -100 0
347 -226 -223 100 102 0
-347 226 0
-347 223 0
-347 -100 0
-347 -102 0
348 -226 -100 -102 -223 0
-348 226 0
-348 100 0
-348 102 0
-348 223 0
226 -103 -223 101 0
-226 103 0
-226 223 0
-226 -101 0
224 -223 -225 0
-224 223 0
-224 225 0
220 -224 218 0
-220 224 0
-220 -218 0
349 -100 -102 -223 0
-349 100 0
-349 102 0
-349 223 0
350 -223 100 102 0
-350 223 0
-350 -100 0
-350 -102 0
228 -102 -223 100 0
-228 102 0
-228 223 0
-228 -100 0
351 -227 -103 -223 101 0
-351 227 0
-351 103 0
-351 223 0
-351 -101 0
352 -228 -101 -223 103 0
-352 228 0
-352 101 0
-352 223 0
-352 -103 0
-224 229 0
221 -223 -229 0
-221 223 0
-221 229 0
-220 221 0
-44 220 218 0
45 86 0
-45 -86 0
46 87 0
-46 -87 0
47 88 0
-47 -88 0
48 89 0
-48 -89 0
49 -48 0
-49 48 0
50 0
51 0
52 0
53 0
54 0
55 0
56 0
57 0
58 0
59 0
60 0
61 0
62 0
63 0
64 0
65 0
66 0
67 0
68 0
69 0
70 22 0
-70 -22 0
71 24 0
-71 -24 0
72 26 0
-72 -26 0
73 28 0
-73 -28 0
74 30 0
-74 -30 0
75 31 0
-75 -31 0
76 32 0
-76 -32 0
77 33 0
-77 -33 0
78 34 0
-78 -34 0
79 35 0
-79 -35 0
80 36 0
-80 -36 0
81 37 0
-81 -37 0
82 38 0
-82 -38 0
83 40 0
-83 -40 0
84 42 0
-84 -42 0
85 43 0
-85 -43 0
86 45 0
-86 -45 0
87 46 0
-87 -46 0
88 47 0
-88 -47 0
89 48 0
-89 -48 0
-1 0
-1 0
-2 0
-3 0
-4 0
-5 0
-6 0
-7 0
-8 0
-9 0
-10 0
-11 0
-12 0
-13 0
-14 0
-15 0
-16 0
-17 0
-18 0
-19 0
-20 0
-21 0
-23 230 231 241 0
23 -230 0
23 -231 0
23 -241 0
-25 251 252 262 0
25 -251 0
25 -252 0
25 -262 0
-27 272 273 283 0
27 -272 0
27 -273 0
27 -283 0
-29 293 294 304 0
29 -293 0
29 -294 0
29 -304 0
-39 314 315 0
39 -314 0
39 -315 0
-41 323 324 334 0
41 -323 0
41 -324 0
41 -334 0
-44 344 345 0
44 -344 0
44 -345 0
-104 0
-106 0
-107 235 245 0
107 -235 0
107 -245 0
-108 240 250 0
108 -240 0
108 -250 0
-112 232 233 234 0
112 -232 0
112 -233 0
112 -234 0
-114 236 237 0
114 -236 0
114 -237 0
-116 238 239 0
116 -238 0
116 -239 0
-119 242 243 244 0
119 -242 0
119 -243 0
119 -244 0
-121 246 247 0
121 -246 0
121 -247 0
-123 248 249 0
123 -248 0
123 -249 0
-124 0
-126 0
-127 256 266 0
127 -256 0
127 -266 0
-128 261 271 0
128 -261 0
128 -271 0
-132 253 254 255 0
132 -253 0
132 -254 0
132 -255 0
-134 257 258 0
134 -257 0
134 -258 0
-136 259 260 0
136 -259 0
136 -260 0
-139 263 264 265 0
139 -263 0
139 -264 0
139 -265 0
-141 267 268 0
141 -267 0
141 -268 0
-143 269 270 0
143 -269 0
143 -270 0
-144 0
-146 0
-147 277 287 0
147 -277 0
147 -287 0
-148 282 292 0
148 -282 0
148 -292 0
-152 274 275 276 0
152 -274 0
152 -275 0
152 -276 0
-154 278 279 0
154 -278 0
154 -279 0
-156 280 281 0
156 -280 0
156 -281 0
-159 284 285 286 0
159 -284 0
159 -285 0
159 -286 0
-161 288 289 0
161 -288 0
161 -289 0
-163 290 291 0
163 -290 0
163 -291 0
-164 0
-166 0
-167 298 308 0
167 -298 0
167 -308 0
-168 303 313 0
168 -303 0
168 -313 0
-172 295 296 297 0
172 -295 0
172 -296 0
172 -297 0
-174 299 300 0
174 -299 0
174 -300 0
-176 301 302 0
176 -301 0
176 -302 0
-179 305 306 307 0
179 -305 0
179 -306 0
179 -307 0
-181 309 310 0
181 -309 0
181 -310 0
-183 311 312 0
183 -311 0
183 -312 0
-184 0
-192 316 317 318 0
192 -316 0
192 -317 0
192 -318 0
-194 319 320 0
194 -319 0
194 -320 0
-196 321 322 0
196 -321 0
196 -322 0
-197 0
-200 328 338 0
200 -328 0
200 -338 0
-201 333 343 0
201 -333 0
201 -343 0
-205 325 326 327 0
205 -325 0
205 -326 0
205 -327 0
-207 329 330 0
207 -329 0
207 -330 0
-209 331 332 0
209 -331 0
209 -332 0
-212 335 336 337 0
212 -335 0
212 -336 0
212 -337 0
-214 339 340 0
214 -339 0
214 -340 0
-216 341 342 0
216 -341 0
216 -342 0
-217 0
-225 346 347 348 0
225 -346 0
225 -347 0
225 -348 0
-227 349 350 0
227 -349 0
227 -350 0
-229 351 352 0
229 -351 0
229 -352 0
c p auxilliary 1 2 3 4 5 6 7 8 9 10 11 12 13 14 15 16 17 18 19 20 21 70 71 72 73 74 75 76 77 78 79 80 81 82 83 84 85 86 87 88 89 90 91 92 93 94 95 96 97 98 99 100 101 102 103 104 105 106 107 108 109 110 111 112 113 114 115 116 117 118 119 120 121 122 123 124 125 126 127 128 129 130 131 132 133 134 135 136 137 138 139 140 141 142 143 144 145 146 147 148 149 150 151 152 153 154 155 156 157 158 159 160 161 162 163 164 165 166 167 168 169 170 171 172 173 174 175 176 177 178 179 180 181 182 183 184 185 186 187 188 189 190 191 192 193 194 195 196 197 198 199 200 201 202 203 204 205 206 207 208 209 210 211 212 213 214 215 216 217 218 219 220 221 222 223 224 225 226 227 228 229 230 231 232 233 234 235 236 237 238 239 240 241 242 243 244 245 246 247 248 249 250 251 252 253 254 255 256 257 258 259 260 261 262 263 264 265 266 267 268 269 270 271 272 273 274 275 276 277 278 279 280 281 282 283 284 285 286 287 288 289 290 291 292 293 294 295 296 297 298 299 300 301 302 303 304 305 306 307 308 309 310 311 312 313 314 315 316 317 318 319 320 321 322 323 324 325 326 327 328 329 330 331 332 333 334 335 336 337 338 339 340 341 342 343 344 345 346 347 348 349 350 351 352 0
