aux_benchmarks/smokers/smokers_8_2_prob.lp.cnf
p cnf 110 192
58 0
-1 58 0
1 -58 0
59 0
-2 59 0
2 -59 0
60 0
-3 60 0
3 -60 0
61 0
-4 61 0
4 -61 0
62 0
-5 62 0
5 -62 0
63 0
-6 63 0
6 -63 0
64 0
-7 64 0
7 -64 0
65 0
-8 65 0
8 -65 0
66 0
-9 66 0
9 -66 0
67 0
-10 67 0
10 -67 0
68 0
-11 68 0
11 -68 0
69 0
-12 69 0
12 -69 0
70 0
-13 70 0
13 -70 0
71 0
-14 71 0
14 -71 0
72 0
-15 72 0
15 -72 0
73 0
-16 73 0
16 -73 0
74 0
-17 74 0
17 -74 0
75 0
-18 75 0
18 -75 0
76 0
-19 76 0
19 -76 0
77 0
-20 77 0
20 -77 0
78 -57 0
-78 57 0
79 -43 -25 0
-79 43 0
-79 25 0
-21 78 79 0
21 -78 0
21 -79 0
80 -50 0
-80 50 0
81 -39 -31 0
-81 39 0
-81 31 0
-23 80 81 0
23 -80 0
23 -81 0
82 -37 -54 0
-82 37 0
-82 54 0
83 -47 -57 0
-83 47 0
-83 57 0
84 -53 0
-84 53 0
-25 82 83 84 0
25 -82 0
25 -83 0
25 -84 0
85 -49 0
-85 49 0
86 -45 -23 0
-86 45 0
-86 23 0
-27 85 86 0
27 -85 0
27 -86 0
87 -38 -52 0
-87 38 0
-87 52 0
88 -30 0
-88 30 0
89 -48 -51 0
-89 48 0
-89 51 0
-29 87 88 89 0
29 -87 0
29 -88 0
29 -89 0
90 -32 0
-90 32 0
91 -46 -50 0
-91 46 0
-91 50 0
-31 90 91 0
31 -90 0
31 -91 0
92 -54 0
-92 54 0
93 -44 -25 0
-93 44 0
-93 25 0
-33 92 93 0
33 -92 0
33 -93 0
94 -36 0
-94 36 0
-35 94 0
35 -94 0
95 -28 0
-95 28 0
-49 95 0
49 -95 0
96 -24 0
-96 24 0
97 -42 -49 0
-97 42 0
-97 49 0
-50 96 97 0
50 -96 0
50 -97 0
98 -55 0
-98 55 0
99 -43 -53 0
-99 43 0
-99 53 0
-51 98 99 0
51 -98 0
51 -99 0
100 -44 -53 0
-100 44 0
-100 53 0
101 -56 0
-101 56 0
-52 100 101 0
52 -100 0
52 -101 0
102 -47 -55 0
-102 47 0
-102 55 0
103 -26 0
-103 26 0
104 -37 -56 0
-104 37 0
-104 56 0
-53 102 103 104 0
53 -102 0
53 -103 0
53 -104 0
105 -41 -29 0
-105 41 0
-105 29 0
106 -52 0
-106 52 0
-54 105 106 0
54 -105 0
54 -106 0
107 -22 0
-107 22 0
-55 107 0
55 -107 0
108 -34 0
-108 34 0
-56 108 0
56 -108 0
109 -51 0
-109 51 0
110 -40 -29 0
-110 40 0
-110 29 0
-57 109 110 0
57 -109 0
57 -110 0
c p weight 1 1.0;1.0;1.0;1.0;1.0;1.0;1.0;1.0 0
c p weight -1 1.0;1.0;1.0;1.0;1.0;1.0;1.0;1.0 0
c p weight 2 1.0;1.0;1.0;1.0;1.0;1.0;1.0;1.0 0
c p weight -2 1.0;1.0;1.0;1.0;1.0;1.0;1.0;1.0 0
c p weight 3 1.0;1.0;1.0;1.0;1.0;1.0;1.0;1.0 0
c p weight -3 1.0;1.0;1.0;1.0;1.0;1.0;1.0;1.0 0
c p weight 4 1.0;1.0;1.0;1.0;1.0;1.0;1.0;1.0 0
c p weight -4 1.0;1.0;1.0;1.0;1.0;1.0;1.0;1.0 0
c p weight 5 1.0;1.0;1.0;1.0;1.0;1.0;1.0;1.0 0
c p weight -5 1.0;1.0;1.0;1.0;1.0;1.0;1.0;1.0 0
c p weight 6 1.0;1.0;1.0;1.0;1.0;1.0;1.0;1.0 0
c p weight -6 1.0;1.0;1.0;1.0;1.0;1.0;1.0;1.0 0
c p weight 7 1.0;1.0;1.0;1.0;1.0;1.0;1.0;1.0 0
c p weight -7 1.0;1.0;1.0;1.0;1.0;1.0;1.0;1.0 0
c p weight 8 1.0;1.0;1.0;1.0;1.0;1.0;1.0;1.0 0
c p weight -8 1.0;1.0;1.0;1.0;1.0;1.0;1.0;1.0 0
c p weight 9 1.0;1.0;1.0;1.0;1.0;1.0;1.0;1.0 0
c p weight -9 1.0;1.0;1.0;1.0;1.0;1.0;1.0;1.0 0
c p weight 10 1.0;1.0;1.0;1.0;1.0;1.0;1.0;1.0 0
c p weight -10 1.0;1.0;1.0;1.0;1.0;1.0;1.0;1.0 0
c p weight 11 1.0;1.0;1.0;1.0;1.0;1.0;1.0;1.0 0
c p weight -11 1.0;1.0;1.0;1.0;1.0;1.0;1.0;1.0 0
c p weight 12 1.0;1.0;1.0;1.0;1.0;1.0;1.0;1.0 0
c p weight -12 1.0;1.0;1.0;1.0;1.0;1.0;1.0;1.0 0
c p weight 13 1.0;1.0;1.0;1.0;1.0;1.0;1.0;1.0 0
c p weight -13 1.0;1.0;1.0;1.0;1.0;1.0;1.0;1.0 0
c p weight 14 1.0;1.0;1.0;1.0;1.0;1.0;1.0;1.0 0
c p weight -14 1.0;1.0;1.0;1.0;1.0;1.0;1.0;1.0 0
c p weight 15 1.0;1.0;1.0;1.0;1.0;1.0;1.0;1.0 0
c p weight -15 1.0;1.0;1.0;1.0;1.0;1.0;1.0;1.0 0
c p weight 16 1.0;1.0;1.0;1.0;1.0;1.0;1.0;1.0 0
c p weight -16 1.0;1.0;1.0;1.0;1.0;1.0;1.0;1.0 0
c p weight 17 1.0;1.0;1.0;1.0;1.0;1.0;1.0;1.0 0
c p weight -17 1.0;1.0;1.0;1.0;1.0;1.0;1.0;1.0 0
c p weight 18 1.0;1.0;1.0;1.0;1.0;1.0;1.0;1.0 0
c p weight -18 1.0;1.0;1.0;1.0;1.0;1.0;1.0;1.0 0
c p weight 19 1.0;1.0;1.0;1.0;1.0;1.0;1.0;1.0 0
c p weight -19 1.0;1.0;1.0;1.0;1.0;1.0;1.0;1.0 0
c p weight 20 1.0;1.0;1.0;1.0;1.0;1.0;1.0;1.0 0
c p weight -20 1.0;1.0;1.0;1.0;1.0;1.0;1.0;1.0 0
c p weight 21 1.0;1.0;1.0;1.0;1.0;1.0;1.0;1.0 0
c p weight -21 0.0;1.0;1.0;1.0;1.0;1.0;1.0;1.0 0
c p weight 22 0.5;0.5;0.5;0.5;0.5;0.5;0.5;0.5 0
c p weight -22 0.5;0.5;0.5;0.5;0.5;0.5;0.5;0.5 0
c p weight 23 1.0;1.0;1.0;1.0;1.0;1.0;1.0;1.0 0
c p weight -23 1.0;0.0;1.0;1.0;1.0;1.0;1.0;1.0 0
c p weight 24 0.5;0.5;0.5;0.5;0.5;0.5;0.5;0.5 0
c p weight -24 0.5;0.5;0.5;0.5;0.5;0.5;0.5;0.5 0
c p weight 25 1.0;1.0;1.0;1.0;1.0;1.0;1.0;1.0 0
c p weight -25 1.0;1.0;0.0;1.0;1.0;1.0;1.0;1.0 0
c p weight 26 0.5;0.5;0.5;0.5;0.5;0.5;0.5;0.5 0
c p weight -26 0.5;0.5;0.5;0.5;0.5;0.5;0.5;0.5 0
c p weight 27 1.0;1.0;1.0;1.0;1.0;1.0;1.0;1.0 0
c p weight -27 1.0;1.0;1.0;0.0;1.0;1.0;1.0;1.0 0
c p weight 28 0.5;0.5;0.5;0.5;0.5;0.5;0.5;0.5 0
c p weight -28 0.5;0.5;0.5;0.5;0.5;0.5;0.5;0.5 0
c p weight 29 1.0;1.0;1.0;1.0;1.0;1.0;1.0;1.0 0
c p weight -29 1.0;1.0;1.0;1.0;0.0;1.0;1.0;1.0 0
c p weight 30 0.5;0.5;0.5;0.5;0.5;0.5;0.5;0.5 0
c p weight -30 0.5;0.5;0.5;0.5;0.5;0.5;0.5;0.5 0
c p weight 31 1.0;1.0;1.0;1.0;1.0;1.0;1.0;1.0 0
c p weight -31 1.0;1.0;1.0;1.0;1.0;0.0;1.0;1.0 0
c p weight 32 0.5;0.5;0.5;0.5;0.5;0.5;0.5;0.5 0
c p weight -32 0.5;0.5;0.5;0.5;0.5;0.5;0.5;0.5 0
c p weight 33 1.0;1.0;1.0;1.0;1.0;1.0;1.0;1.0 0
c p weight -33 1.0;1.0;1.0;1.0;1.0;1.0;0.0;1.0 0
c p weight 34 0.5;0.5;0.5;0.5;0.5;0.5;0.5;0.5 0
c p weight -34 0.5;0.5;0.5;0.5;0.5;0.5;0.5;0.5 0
c p weight 35 1.0;1.0;1.0;1.0;1.0;1.0;1.0;1.0 0
c p weight -35 1.0;1.0;1.0;1.0;1.0;1.0;1.0;0.0 0
c p weight 36 0.5;0.5;0.5;0.5;0.5;0.5;0.5;0.5 0
c p weight -36 0.5;0.5;0.5;0.5;0.5;0.5;0.5;0.5 0
c p weight 37 0.5;0.5;0.5;0.5;0.5;0.5;0.5;0.5 0
c p weight -37 0.5;0.5;0.5;0.5;0.5;0.5;0.5;0.5 0
c p weight 38 0.5;0.5;0.5;0.5;0.5;0.5;0.5;0.5 0
c p weight -38 0.5;0.5;0.5;0.5;0.5;0.5;0.5;0.5 0
c p weight 39 0.5;0.5;0.5;0.5;0.5;0.5;0.5;0.5 0
c p weight -39 0.5;0.5;0.5;0.5;0.5;0.5;0.5;0.5 0
c p weight 40 0.5;0.5;0.5;0.5;0.5;0.5;0.5;0.5 0
c p weight -40 0.5;0.5;0.5;0.5;0.5;0.5;0.5;0.5 0
c p weight 41 0.5;0.5;0.5;0.5;0.5;0.5;0.5;0.5 0
c p weight -41 0.5;0.5;0.5;0.5;0.5;0.5;0.5;0.5 0
c p weight 42 0.5;0.5;0.5;0.5;0.5;0.5;0.5;0.5 0
c p weight -42 0.5;0.5;0.5;0.5;0.5;0.5;0.5;0.5 0
c p weight 43 0.5;0.5;0.5;0.5;0.5;0.5;0.5;0.5 0
c p weight -43 0.5;0.5;0.5;0.5;0.5;0.5;0.5;0.5 0
c p weight 44 0.5;0.5;0.5;0.5;0.5;0.5;0.5;0.5 0
c p weight -44 0.5;0.5;0.5;0.5;0.5;0.5;0.5;0.5 0
c p weight 45 0.5;0.5;0.5;0.5;0.5;0.5;0.5;0.5 0
c p weight -45 0.5;0.5;0.5;0.5;0.5;0.5;0.5;0.5 0
c p weight 46 0.5;0.5;0.5;0.5;0.5;0.5;0.5;0.5 0
c p weight -46 0.5;0.5;0.5;0.5;0.5;0.5;0.5;0.5 0
c p weight 47 0.5;0.5;0.5;0.5;0.5;0.5;0.5;0.5 0
c p weight -47 0.5;0.5;0.5;0.5;0.5;0.5;0.5;0.5 0
c p weight 48 0.5;0.5;0.5;0.5;0.5;0.5;0.5;0.5 0
c p weight -48 0.5;0.5;0.5;0.5;0.5;0.5;0.5;0.5 0
c p weight 49 1.0;1.0;1.0;1.0;1.0;1.0;1.0;1.0 0
c p weight -49 1.0;1.0;1.0;1.0;1.0;1.0;1.0;1.0 0
c p weight 50 1.0;1.0;1.0;1.0;1.0;1.0;1.0;1.0 0
c p weight -50 1.0;1.0;1.0;1.0;1.0;1.0;1.0;1.0 0
c p weight 51 1.0;1.0;1.0;1.0;1.0;1.0;1.0;1.0 0
c p weight -51 1.0;1.0;1.0;1.0;1.0;1.0;1.0;1.0 0
c p weight 52 1.0;1.0;1.0;1.0;1.0;1.0;1.0;1.0 0
c p weight -52 1.0;1.0;1.0;1.0;1.0;1.0;1.0;1.0 0
c p weight 53 1.0;1.0;1.0;1.0;1.0;1.0;1.0;1.0 0
c p weight -53 1.0;1.0;1.0;1.0;1.0;1.0;1.0;1.0 0
c p weight 54 1.0;1.0;1.0;1.0;1.0;1.0;1.0;1.0 0
c p weight -54 1.0;1.0;1.0;1.0;1.0;1.0;1.0;1.0 0
c p weight 55 1.0;1.0;1.0;1.0;1.0;1.0;1.0;1.0 0
c p weight -55 1.0;1.0;1.0;1.0;1.0;1.0;1.0;1.0 0
c p weight 56 1.0;1.0;1.0;1.0;1.0;1.0;1.0;1.0 0
c p weight -56 1.0;1.0;1.0;1.0;1.0;1.0;1.0;1.0 0
c p weight 57 1.0;1.0;1.0;1.0;1.0;1.0;1.0;1.0 0
c p weight -57 1.0;1.0;1.0;1.0;1.0;1.0;1.0;1.0 0
c p weight 58 1.0;1.0;1.0;1.0;1.0;1.0;1.0;1.0 0
c p weight -58 1.0;1.0;1.0;1.0;1.0;1.0;1.0;1.0 0
c p weight 59 1.0;1.0;1.0;1.0;1.0;1.0;1.0;1.0 0
c p weight -59 1.0;1.0;1.0;1.0;1.0;1.0;1.0;1.0 0
c p weight 60 1.0;1.0;1.0;1.0;1.0;1.0;1.0;1.0 0
c p weight -60 1.0;1.0;1.0;1.0;1.0;1.0;1.0;1.0 0
c p weight 61 1.0;1.0;1.0;1.0;1.0;1.0;1.0;1.0 0
c p weight -61 1.0;1.0;1.0;1.0;1.0;1.0;1.0;1.0 0
c p weight 62 1.0;1.0;1.0;1.0;1.0;1.0;1.0;1.0 0
c p weight -62 1.0;1.0;1.0;1.0;1.0;1.0;1.0;1.0 0
c p weight 63 1.0;1.0;1.0;1.0;1.0;1.0;1.0;1.0 0
c p weight -63 1.0;1.0;1.0;1.0;1.0;1.0;1.0;1.0 0
c p weight 64 1.0;1.0;1.0;1.0;1.0;1.0;1.0;1.0 0
c p weight -64 1.0;1.0;1.0;1.0;1.0;1.0;1.0;1.0 0
c p weight 65 1.0;1.0;1.0;1.0;1.0;1.0;1.0;1.0 0
c p weight -65 1.0;1.0;1.0;1.0;1.0;1.0;1.0;1.0 0
c p weight 66 1.0;1.0;1.0;1.0;1.0;1.0;1.0;1.0 0
c p weight -66 1.0;1.0;1.0;1.0;1.0;1.0;1.0;1.0 0
c p weight 67 1.0;1.0;1.0;1.0;1.0;1.0;1.0;1.0 0
c p weight -67 1.0;1.0;1.0;1.0;1.0;1.0;1.0;1.0 0
c p weight 68 1.0;1.0;1.0;1.0;1.0;1.0;1.0;1.0 0
c p weight -68 1.0;1.0;1.0;1.0;1.0;1.0;1.0;1.0 0
c p weight 69 1.0;1.0;1.0;1.0;1.0;1.0;1.0;1.0 0
c p weight -69 1.0;1.0;1.0;1.0;1.0;1.0;1.0;1.0 0
c p weight 70 1.0;1.0;1.0;1.0;1.0;1.0;1.0;1.0 0
c p weight -70 1.0;1.0;1.0;1.0;1.0;1.0;1.0;1.0 0
c p weight 71 1.0;1.0;1.0;1.0;1.0;1.0;1.0;1.0 0
c p weight -71 1.0;1.0;1.0;1.0;1.0;1.0;1.0;1.0 0
c p weight 72 1.0;1.0;1.0;1.0;1.0;1.0;1.0;1.0 0
c p weight -72 1.0;1.0;1.0;1.0;1.0;1.0;1.0;1.0 0
c p weight 73 1.0;1.0;1.0;1.0;1.0;1.0;1.0;1.0 0
c p weight -73 1.0;1.0;1.0;1.0;1.0;1.0;1.0;1.0 0
c p weight 74 1.0;1.0;1.0;1.0;1.0;1.0;1.0;1.0 0
c p weight -74 1.0;1.0;1.0;1.0;1.0;1.0;1.0;1.0 0
c p weight 75 1.0;1.0;1.0;1.0;1.0;1.0;1.0;1.0 0
c p weight -75 1.0;1.0;1.0;1.0;1.0;1.0;1.0;1.0 0
c p weight 76 1.0;1.0;1.0;1.0;1.0;1.0;1.0;1.0 0
c p weight -76 1.0;1.0;1.0;1.0;1.0;1.0;1.0;1.0 0
c p weight 77 1.0;1.0;1.0;1.0;1.0;1.0;1.0;1.0 0
c p weight -77 1.0;1.0;1.0;1.0;1.0;1.0;1.0;1.0 0
c p weight 78 1.0;1.0;1.0;1.0;1.0;1.0;1.0;1.0 0
c p weight -78 1.0;1.0;1.0;1.0;1.0;1.0;1.0;1.0 0
c p weight 79 1.0;1.0;1.0;1.0;1.0;1.0;1.0;1.0 0
c p weight -79 1.0;1.0;1.0;1.0;1.0;1.0;1.0;1.0 0
c p weight 80 1.0;1.0;1.0;1.0;1.0;1.0;1.0;1.0 0
c p weight -80 1.0;1.0;1.0;1.0;1.0;1.0;1.0;1.0 0
c p weight 81 1.0;1.0;1.0;1.0;1.0;1.0;1.0;1.0 0
c p weight -81 1.0;1.0;1.0;1.0;1.0;1.0;1.0;1.0 0
c p weight 82 1.0;1.0;1.0;1.0;1.0;1.0;1.0;1.0 0
c p weight -82 1.0;1.0;1.0;1.0;1.0;1.0;1.0;1.0 0
c p weight 83 1.0;1.0;1.0;1.0;1.0;1.0;1.0;1.0 0
c p weight -83 1.0;1.0;1.0;1.0;1.0;1.0;1.0;1.0 0
c p weight 84 1.0;1.0;1.0;1.0;1.0;1.0;1.0;1.0 0
c p weight -84 1.0;1.0;1.0;1.0;1.0;1.0;1.0;1.0 0
c p weight 85 1.0;1.0;1.0;1.0;1.0;1.0;1.0;1.0 0
c p weight -85 1.0;1.0;1.0;1.0;1.0;1.0;1.0;1.0 0
c p weight 86 1.0;1.0;1.0;1.0;1.0;1.0;1.0;1.0 0
c p weight -86 1.0;1.0;1.0;1.0;1.0;1.0;1.0;1.0 0
c p weight 87 1.0;1.0;1.0;1.0;1.0;1.0;1.0;1.0 0
c p weight -87 1.0;1.0;1.0;1.0;1.0;1.0;1.0;1.0 0
c p weight 88 1.0;1.0;1.0;1.0;1.0;1.0;1.0;1.0 0
c p weight -88 1.0;1.0;1.0;1.0;1.0;1.0;1.0;1.0 0
c p weight 89 1.0;1.0;1.0;1.0;1.0;1.0;1.0;1.0 0
c p weight -89 1.0;1.0;1.0;1.0;1.0;1.0;1.0;1.0 0
c p weight 90 1.0;1.0;1.0;1.0;1.0;1.0;1.0;1.0 0
c p weight -90 1.0;1.0;1.0;1.0;1.0;1.0;1.0;1.0 0
c p weight 91 1.0;1.0;1.0;1.0;1.0;1.0;1.0;1.0 0
c p weight -91 1.0;1.0;1.0;1.0;1.0;1.0;1.0;1.0 0
c p weight 92 1.0;1.0;1.0;1.0;1.0;1.0;1.0;1.0 0
c p weight -92 1.0;1.0;1.0;1.0;1.0;1.0;1.0;1.0 0
c p weight 93 1.0;1.0;1.0;1.0;1.0;1.0;1.0;1.0 0
c p weight -93 1.0;1.0;1.0;1.0;1.0;1.0;1.0;1.0 0
c p weight 94 1.0;1.0;1.0;1.0;1.0;1.0;1.0;1.0 0
c p weight -94 1.0;1.0;1.0;1.0;1.0;1.0;1.0;1.0 0
c p weight 95 1.0;1.0;1.0;1.0;1.0;1.0;1.0;1.0 0
c p weight -95 1.0;1.0;1.0;1.0;1.0;1.0;1.0;1.0 0
c p weight 96 1.0;1.0;1.0;1.0;1.0;1.0;1.0;1.0 0
c p weight -96 1.0;1.0;1.0;1.0;1.0;1.0;1.0;1.0 0
c p weight 97 1.0;1.0;1.0;1.0;1.0;1.0;1.0;1.0 0
c p weight -97 1.0;1.0;1.0;1.0;1.0;1.0;1.0;1.0 0
c p weight 98 1.0;1.0;1.0;1.0;1.0;1.0;1.0;1.0 0
c p weight -98 1.0;1.0;1.0;1.0;1.0;1.0;1.0;1.0 0
c p weight 99 1.0;1.0;1.0;1.0;1.0;1.0;1.0;1.0 0
c p weight -99 1.0;1.0;1.0;1.0;1.0;1.0;1.0;1.0 0
c p weight 100 1.0;1.0;1.0;1.0;1.0;1.0;1.0;1.0 0
c p weight -100 1.0;1.0;1.0;1.0;1.0;1.0;1.0;1.0 0
c p weight 101 1.0;1.0;1.0;1.0;1.0;1.0;1.0;1.0 0
c p weight -101 1.0;1.0;1.0;1.0;1.0;1.0;1.0;1.0 0
c p weight 102 1.0;1.0;1.0;1.0;1.0;1.0;1.0;1.0 0
c p weight -102 1.0;1.0;1.0;1.0;1.0;1.0;1.0;1.0 0
c p weight 103 1.0;1.0;1.0;1.0;1.0;1.0;1.0;1.0 0
c p weight -103 1.0;1.0;1.0;1.0;1.0;1.0;1.0;1.0 0
c p weight 104 1.0;1.0;1.0;1.0;1.0;1.0;1.0;1.0 0
c p weight -104 1.0;1.0;1.0;1.0;1.0;1.0;1.0;1.0 0
c p weight 105 1.0;1.0;1.0;1.0;1.0;1.0;1.0;1.0 0
c p weight -105 1.0;1.0;1.0;1.0;1.0;1.0;1.0;1.0 0
c p weight 106 1.0;1.0;1.0;1.0;1.0;1.0;1.0;1.0 0
c p weight -106 1.0;1.0;1.0;1.0;1.0;1.0;1.0;1.0 0
c p weight 107 1.0;1.0;1.0;1.0;1.0;1.0;1.0;1.0 0
c p weight -107 1.0;1.0;1.0;1.0;1.0;1.0;1.0;1.0 0
c p weight 108 1.0;1.0;1.0;1.0;1.0;1.0;1.0;1.0 0
c p weight -108 1.0;1.0;1.0;1.0;1.0;1.0;1.0;1.0 0
c p weight 109 1.0;1.0;1.0;1.0;1.0;1.0;1.0;1.0 0
c p weight -109 1.0;1.0;1.0;1.0;1.0;1.0;1.0;1.0 0
c p weight 110 1.0;1.0;1.0;1.0;1.0;1.0;1.0;1.0 0
c p weight -110 1.0;1.0;1.0;1.0;1.0;1.0;1.0;1.0 0
c p semirings aspmc.semirings.probabilistic 0
c p quantify 1 2 3 4 5 6 7 8 9 10 11 12 13 14 15 16 17 18 19 20 21 22 23 24 25 26 27 28 29 30 31 32 33 34 35 36 37 38 39 40 41 42 43 44 45 46 47 48 49 50 51 52 53 54 55 56 57 58 59 60 61 62 63 64 65 66 67 68 69 70 71 72 73 74 75 76 77 78 79 80 81 82 83 84 85 86 87 88 89 90 91 92 93 94 95 96 97 98 99 100 101 102 103 104 105 106 107 108 109 110 0
c p auxilliary 1 2 3 4 5 6 7 8 9 10 11 12 13 14 15 16 17 18 19 20 49 50 51 52 53 54 55 56 57 58 59 60 61 62 63 64 65 66 67 68 69 70 71 72 73 74 75 76 77 78 79 80 81 82 83 84 85 86 87 88 89 90 91 92 93 94 95 96 97 98 99 100 101 102 103 104 105 106 107 108 109 110 0
